31 63 71 138 179 101 52 187 21 19 127 10 158 197 51 0 167 121 154 135 132 115 22 108 144 2 142 44 15 120 124 196 18 113 32 118 176 1 177 45 74 23 126 64 150 40 119 43 93 166 125 178 62 75 103 147 4 140 112 193 42 199 152 128 104 172 53 47 194 173 105 83 157 39 29 149 117 186 84 151 90 174 25 48 57 50 141 181 13 59 36 17 79 109 80 65 188 191 182 73 72 37 185 145 165 55 190 16 129 155 192 102 198 89 14 76 38 123 183 171 92 95 114 67 133 163 20 9 82 3 106 56 66 35 46 8 94 162 143 81 68 96 69 184 175 98 88 49 122 27 91 86 11 153 7 160 54 28 161 41 78 61 131 100 26 146 137 189 170 60 180 30 34 130 195 24 116 99 159 156 70 164 12 97 169 87 107 111 110 6 58 139 136 148 134 5 85 33 77 168